In Sb                                   
   1.00000000000000     
     4.3430000000000000    0.0000000000000000    0.0000000000000000
    -2.1714999999999991    3.7611483286358176    0.0000000000000000
     0.0000000000000004    0.0000000000000008    7.0910000000000002
   In   Sb
     2     2
Direct
  0.3333330000000032  0.6666669999999968  0.0000000000000000
  0.6666669999999968  0.3333330000000032  0.5000000000000000
  0.3333330000000032  0.6666669999999968  0.3750000000000000
  0.6666669999999968  0.3333330000000032  0.8750000000000000
 
  0.00000000E+00  0.00000000E+00  0.00000000E+00
  0.00000000E+00  0.00000000E+00  0.00000000E+00
  0.00000000E+00  0.00000000E+00  0.00000000E+00
  0.00000000E+00  0.00000000E+00  0.00000000E+00
