Zn  S                                   
   1.00000000000000     
     3.8227000000000002    0.0000000000000000    0.0000000000000000
    -1.9113499999999992    3.3105553110467745    0.0000000000000000
     0.0000000000000004    0.0000000000000007    6.2606999999999999
   Zn   S 
     2     2
Direct
  0.3333000000000013  0.6666999999999987  0.0000000000000000
  0.6666999999999987  0.3333000000000013  0.5000000000000000
  0.3333000000000013  0.6666999999999987  0.3748000000000005
  0.6666999999999987  0.3333000000000013  0.8748000000000005
 
  0.00000000E+00  0.00000000E+00  0.00000000E+00
  0.00000000E+00  0.00000000E+00  0.00000000E+00
  0.00000000E+00  0.00000000E+00  0.00000000E+00
  0.00000000E+00  0.00000000E+00  0.00000000E+00
