KPOINTS created by Atomic Simulation Environment
81 
Reciprocal
0.000000 0.000000 0.000000 0.015625 
0.065399 0.037758 -0.000000 0.062500 
0.130798 0.075516 -0.000000 0.031250 
0.065399 0.113274 -0.000000 0.031250 
0.130798 0.151032 -0.000000 0.062500 
-0.065399 0.037758 -0.000000 0.031250 
0.130798 0.226548 -0.000000 0.015625 
0.000000 0.000000 0.039932 0.031250 
0.065399 0.037758 0.039932 0.125000 
0.130798 0.075516 0.039932 0.062500 
0.065399 0.113274 0.039932 0.062500 
0.130798 0.151032 0.039932 0.125000 
-0.065399 0.037758 0.039932 0.062500 
0.130798 0.226548 0.039932 0.031250 
0.000000 0.000000 0.079863 0.015625 
0.065399 0.037758 0.079863 0.062500 
0.130798 0.075516 0.079863 0.031250 
0.065399 0.113274 0.079863 0.031250 
0.130798 0.151032 0.079863 0.062500 
-0.065399 0.037758 0.079863 0.031250 
0.130798 0.226548 0.079863 0.015625 
0.000000 0.000000 0.500000 0.000000 
0.000000 0.031250 0.500000 0.000000 
0.000000 0.062500 0.500000 0.000000 
0.000000 0.093750 0.500000 0.000000 
0.000000 0.125000 0.500000 0.000000 
0.000000 0.156250 0.500000 0.000000 
0.000000 0.187500 0.500000 0.000000 
0.000000 0.218750 0.500000 0.000000 
0.000000 0.250000 0.500000 0.000000 
0.000000 0.281250 0.500000 0.000000 
0.000000 0.312500 0.500000 0.000000 
0.000000 0.343750 0.500000 0.000000 
0.000000 0.375000 0.500000 0.000000 
0.000000 0.406250 0.500000 0.000000 
0.000000 0.437500 0.500000 0.000000 
0.000000 0.468750 0.500000 0.000000 
0.000000 0.500000 0.500000 0.000000 
0.000000 0.500000 0.437500 0.000000 
0.000000 0.500000 0.375000 0.000000 
0.000000 0.500000 0.312500 0.000000 
0.000000 0.500000 0.250000 0.000000 
0.000000 0.500000 0.187500 0.000000 
0.000000 0.500000 0.125000 0.000000 
0.000000 0.500000 0.062500 0.000000 
0.000000 0.500000 0.000000 0.000000 
0.000000 0.468750 0.000000 0.000000 
0.000000 0.437500 0.000000 0.000000 
0.000000 0.406250 0.000000 0.000000 
0.000000 0.375000 0.000000 0.000000 
0.000000 0.343750 0.000000 0.000000 
0.000000 0.312500 0.000000 0.000000 
0.000000 0.281250 0.000000 0.000000 
0.000000 0.250000 0.000000 0.000000 
0.000000 0.218750 0.000000 0.000000 
0.000000 0.187500 0.000000 0.000000 
0.000000 0.156250 0.000000 0.000000 
0.000000 0.125000 0.000000 0.000000 
0.000000 0.093750 0.000000 0.000000 
0.000000 0.062500 0.000000 0.000000 
0.000000 0.031250 0.000000 0.000000 
0.000000 0.000000 0.000000 0.000000 
0.000000 0.000000 0.062500 0.000000 
0.000000 0.000000 0.125000 0.000000 
0.000000 0.000000 0.187500 0.000000 
0.000000 0.000000 0.250000 0.000000 
0.000000 0.000000 0.312500 0.000000 
0.000000 0.000000 0.375000 0.000000 
0.000000 0.000000 0.437500 0.000000 
0.000000 0.000000 0.500000 0.000000 
-0.030303 0.030303 0.500000 0.000000 
-0.060606 0.060606 0.500000 0.000000 
-0.090909 0.090909 0.500000 0.000000 
-0.121212 0.121212 0.500000 0.000000 
-0.151515 0.151515 0.500000 0.000000 
-0.181818 0.181818 0.500000 0.000000 
-0.212121 0.212121 0.500000 0.000000 
-0.242424 0.242424 0.500000 0.000000 
-0.272727 0.272727 0.500000 0.000000 
-0.303030 0.303030 0.500000 0.000000 
-0.333333 0.333333 0.500000 0.000000 
