Zn  S 
 1.0000000000000000
     3.8227000000000002    0.0000000000000000    0.0000000000000000
    -1.9113499999999992    3.3105553110467745    0.0000000000000000
     0.0000000000000004    0.0000000000000007    6.2606999999999999
   2   2
Cartesian
 -0.0001911349999992  2.2071472258748845  0.0000000000000000
  1.9115411350000009  1.1034080851718904  3.1303500000000000
 -0.0001911349999991  2.2071472258748850  2.3465103599999999
  1.9115411350000011  1.1034080851718908  5.4768603599999999
