Ga  N                                   
   1.00000000000000     
     3.2162901300000000    0.0000000000000000    0.0000000000000000
    -1.6081450649999993    2.7853889585211551    0.0000000000000000
     0.0000000000000003    0.0000000000000006    5.2399624600000001
   Ga   N 
     2     2
Direct
  0.3333330000000032  0.6666669999999968  0.5008800000000022
  0.6666669999999968  0.3333330000000032  0.0008800000000022
  0.3333330000000032  0.6666669999999968  0.1241199999999978
  0.6666669999999968  0.3333330000000032  0.6241199999999978
 
  0.00000000E+00  0.00000000E+00  0.00000000E+00
  0.00000000E+00  0.00000000E+00  0.00000000E+00
  0.00000000E+00  0.00000000E+00  0.00000000E+00
  0.00000000E+00  0.00000000E+00  0.00000000E+00
