Ga  N 
 1.0000000000000000
     3.2162901300000000    0.0000000000000000    0.0000000000000000
    -1.6081450649999993    2.7853889585211551    0.0000000000000000
     0.0000000000000003    0.0000000000000006    5.2399624600000001
   2   2
Cartesian
 -0.0000016081450645  1.8569269008104232  2.6245923969648000
  1.6081466731450655  0.9284620577107322  0.0046111669648000
 -0.0000016081450646  1.8569269008104230  0.6503841405352000
  1.6081466731450658  0.9284620577107325  3.2703653705352003
