Ga  P                                   
   1.00000000000000     
     3.8803567000000001    0.0000000000000000    0.0000000000000000
    -1.9401783499999992    3.3604874779451528    0.0000000000000000
     0.0000000000000004    0.0000000000000007    6.3953610999999997
   Ga   P 
     2     2
Direct
  0.6666669999999968  0.3333330000000032  0.4999389999999977
  0.3333330000000032  0.6666669999999968  0.9999389999999977
  0.6666669999999968  0.3333330000000032  0.8740609999999975
  0.3333330000000032  0.6666669999999968  0.3740609999999975
 
  0.00000000E+00  0.00000000E+00  0.00000000E+00
  0.00000000E+00  0.00000000E+00  0.00000000E+00
  0.00000000E+00  0.00000000E+00  0.00000000E+00
  0.00000000E+00  0.00000000E+00  0.00000000E+00
