KPOINTS created by Atomic Simulation Environment
72 
Reciprocal
0.000000 0.000000 0.000000 0.015625 
0.064427 0.037197 -0.000000 0.093750 
0.128854 0.074394 -0.000000 0.046875 
0.064427 0.111591 -0.000000 0.093750 
0.000000 0.000000 0.039091 0.031250 
0.064427 0.037197 0.039091 0.187500 
0.128854 0.074394 0.039091 0.093750 
0.064427 0.111591 0.039091 0.187500 
0.000000 0.000000 0.078182 0.015625 
0.064427 0.037197 0.078182 0.093750 
0.128854 0.074394 0.078182 0.046875 
0.064427 0.111591 0.078182 0.093750 
0.000000 0.000000 0.500000 0.000000 
0.000000 0.031250 0.500000 0.000000 
0.000000 0.062500 0.500000 0.000000 
0.000000 0.093750 0.500000 0.000000 
0.000000 0.125000 0.500000 0.000000 
0.000000 0.156250 0.500000 0.000000 
0.000000 0.187500 0.500000 0.000000 
0.000000 0.218750 0.500000 0.000000 
0.000000 0.250000 0.500000 0.000000 
0.000000 0.281250 0.500000 0.000000 
0.000000 0.312500 0.500000 0.000000 
0.000000 0.343750 0.500000 0.000000 
0.000000 0.375000 0.500000 0.000000 
0.000000 0.406250 0.500000 0.000000 
0.000000 0.437500 0.500000 0.000000 
0.000000 0.468750 0.500000 0.000000 
0.000000 0.500000 0.500000 0.000000 
0.000000 0.500000 0.437500 0.000000 
0.000000 0.500000 0.375000 0.000000 
0.000000 0.500000 0.312500 0.000000 
0.000000 0.500000 0.250000 0.000000 
0.000000 0.500000 0.187500 0.000000 
0.000000 0.500000 0.125000 0.000000 
0.000000 0.500000 0.062500 0.000000 
0.000000 0.500000 0.000000 0.000000 
0.000000 0.468750 0.000000 0.000000 
0.000000 0.437500 0.000000 0.000000 
0.000000 0.406250 0.000000 0.000000 
0.000000 0.375000 0.000000 0.000000 
0.000000 0.343750 0.000000 0.000000 
0.000000 0.312500 0.000000 0.000000 
0.000000 0.281250 0.000000 0.000000 
0.000000 0.250000 0.000000 0.000000 
0.000000 0.218750 0.000000 0.000000 
0.000000 0.187500 0.000000 0.000000 
0.000000 0.156250 0.000000 0.000000 
0.000000 0.125000 0.000000 0.000000 
0.000000 0.093750 0.000000 0.000000 
0.000000 0.062500 0.000000 0.000000 
0.000000 0.031250 0.000000 0.000000 
0.000000 0.000000 0.000000 0.000000 
0.000000 0.000000 0.062500 0.000000 
0.000000 0.000000 0.125000 0.000000 
0.000000 0.000000 0.187500 0.000000 
0.000000 0.000000 0.250000 0.000000 
0.000000 0.000000 0.312500 0.000000 
0.000000 0.000000 0.375000 0.000000 
0.000000 0.000000 0.437500 0.000000 
0.000000 0.000000 0.500000 0.000000 
-0.030303 0.030303 0.500000 0.000000 
-0.060606 0.060606 0.500000 0.000000 
-0.090909 0.090909 0.500000 0.000000 
-0.121212 0.121212 0.500000 0.000000 
-0.151515 0.151515 0.500000 0.000000 
-0.181818 0.181818 0.500000 0.000000 
-0.212121 0.212121 0.500000 0.000000 
-0.242424 0.242424 0.500000 0.000000 
-0.272727 0.272727 0.500000 0.000000 
-0.303030 0.303030 0.500000 0.000000 
-0.333333 0.333333 0.500000 0.000000 
