Ga  P 
 1.0000000000000000
     3.8803567000000001    0.0000000000000000    0.0000000000000000
    -1.9401783499999992    3.3604874779451528    0.0000000000000000
     0.0000000000000004    0.0000000000000007    6.3953610999999997
   2   2
Cartesian
  1.9401802901783507  1.1201613724858921  3.1972904329728999
 -0.0000019401783489  2.2403261054592623  6.3949709829729002
  1.9401802901783509  1.1201613724858923  5.5899357184270997
 -0.0000019401783492  2.2403261054592618  2.3922551684270998
