Si                                      
   1.00000000000000     
     0.0000000000000003    2.7294999999999998    2.7294999999999998
     2.7294999999999998    0.0000000000000002    2.7294999999999998
     2.7294999999999998    2.7294999999999998    0.0000000000000000
   Si
     2
Direct
  0.0000000000000000  0.0000000000000000  0.0000000000000000
  0.2500000000000000  0.2500000000000000  0.2500000000000000
 
  0.00000000E+00  0.00000000E+00  0.00000000E+00
  0.00000000E+00  0.00000000E+00  0.00000000E+00
