KPOINTS created by Atomic Simulation Environment
68 
Reciprocal
0.000000 0.000000 0.000000 0.015625 
-0.045796 0.045796 0.045796 0.125000 
-0.091592 0.091592 0.091592 0.062500 
0.000000 0.000000 0.091592 0.093750 
-0.045796 0.045796 0.137388 0.375000 
0.091592 -0.091592 0.000000 0.187500 
0.000000 0.000000 0.183184 0.046875 
0.183184 -0.091592 0.000000 0.093750 
0.500000 0.250000 0.750000 0.000000 
0.500000 0.270833 0.729167 0.000000 
0.500000 0.291667 0.708333 0.000000 
0.500000 0.312500 0.687500 0.000000 
0.500000 0.333333 0.666667 0.000000 
0.500000 0.354167 0.645833 0.000000 
0.500000 0.375000 0.625000 0.000000 
0.500000 0.395833 0.604167 0.000000 
0.500000 0.416667 0.583333 0.000000 
0.500000 0.437500 0.562500 0.000000 
0.500000 0.458333 0.541667 0.000000 
0.500000 0.479167 0.520833 0.000000 
0.500000 0.500000 0.500000 0.000000 
0.466667 0.466667 0.466667 0.000000 
0.433333 0.433333 0.433333 0.000000 
0.400000 0.400000 0.400000 0.000000 
0.366667 0.366667 0.366667 0.000000 
0.333333 0.333333 0.333333 0.000000 
0.300000 0.300000 0.300000 0.000000 
0.266667 0.266667 0.266667 0.000000 
0.233333 0.233333 0.233333 0.000000 
0.200000 0.200000 0.200000 0.000000 
0.166667 0.166667 0.166667 0.000000 
0.133333 0.133333 0.133333 0.000000 
0.100000 0.100000 0.100000 0.000000 
0.066667 0.066667 0.066667 0.000000 
0.033333 0.033333 0.033333 0.000000 
0.000000 0.000000 0.000000 0.000000 
0.029412 0.000000 0.029412 0.000000 
0.058824 0.000000 0.058824 0.000000 
0.088235 0.000000 0.088235 0.000000 
0.117647 0.000000 0.117647 0.000000 
0.147059 0.000000 0.147059 0.000000 
0.176471 0.000000 0.176471 0.000000 
0.205882 0.000000 0.205882 0.000000 
0.235294 0.000000 0.235294 0.000000 
0.264706 0.000000 0.264706 0.000000 
0.294118 0.000000 0.294118 0.000000 
0.323529 0.000000 0.323529 0.000000 
0.352941 0.000000 0.352941 0.000000 
0.382353 0.000000 0.382353 0.000000 
0.411765 0.000000 0.411765 0.000000 
0.441176 0.000000 0.441176 0.000000 
0.470588 0.000000 0.470588 0.000000 
0.500000 0.000000 0.500000 0.000000 
0.500000 0.027778 0.527778 0.000000 
0.500000 0.055556 0.555556 0.000000 
0.500000 0.083333 0.583333 0.000000 
0.500000 0.111111 0.611111 0.000000 
0.500000 0.138889 0.638889 0.000000 
0.500000 0.166667 0.666667 0.000000 
0.500000 0.194444 0.694444 0.000000 
0.500000 0.222222 0.722222 0.000000 
0.500000 0.250000 0.750000 0.000000 
0.479167 0.270833 0.750000 0.000000 
0.458333 0.291667 0.750000 0.000000 
0.437500 0.312500 0.750000 0.000000 
0.416667 0.333333 0.750000 0.000000 
0.395833 0.354167 0.750000 0.000000 
0.375000 0.375000 0.750000 0.000000 
