Si 
 1.0000000000000000
     0.0000000000000003    2.7294999999999998    2.7294999999999998
     2.7294999999999998    0.0000000000000002    2.7294999999999998
     2.7294999999999998    2.7294999999999998    0.0000000000000000
   2
Cartesian
  0.0000000000000000  0.0000000000000000  0.0000000000000000
  1.3647499999999999  1.3647499999999999  1.3647499999999999
